245,89
635,264
734,433
745,605
225,554
326,462
415,448
699,349
573,193
1108,189
998,-30
926,-75
602,-97
681,76
667,318
909,332
826,511
994,507
808,533
963,794
672,434
261,406
602,909
681,826
644,643
482,342
575,460
761,366
734,379
